
******************************************************************************
This program contains Ipopt, a library for large-scale nonlinear optimization.
 Ipopt is released as open source code under the Eclipse Public License (EPL).
         For more information visit http://projects.coin-or.org/Ipopt
******************************************************************************

This is Ipopt version 3.12.6, running with linear solver ma57.

Number of nonzeros in equality constraint Jacobian...:        0
Number of nonzeros in inequality constraint Jacobian.:       10
Number of nonzeros in Lagrangian Hessian.............:        3

Total number of variables............................:        2
                     variables with only lower bounds:        0
                variables with lower and upper bounds:        2
                     variables with only upper bounds:        0
Total number of equality constraints.................:        0
Total number of inequality constraints...............:        5
        inequality constraints with only lower bounds:        1
   inequality constraints with lower and upper bounds:        0
        inequality constraints with only upper bounds:        4

iter    objective    inf_pr   inf_du lg(mu)  ||d||  lg(rg) alpha_du alpha_pr  ls
   0  1.3568539e+01 6.67e+00 8.70e-01  -1.0 0.00e+00    -  0.00e+00 0.00e+00   0
   1  1.2220782e+01 5.11e+00 2.29e+00  -1.0 8.93e+01    -  7.04e-02 2.36e-01f  1
   2  6.8600280e+00 4.53e-02 5.21e-01  -1.0 3.42e+01    -  6.80e-01 1.00e+00f  1
   3  4.9281505e+00 0.00e+00 8.72e-01  -1.0 5.69e+01    -  4.82e-01 1.00e+00h  1
   4 -6.0086169e+00 0.00e+00 2.61e-01  -1.0 9.35e+01    -  9.26e-02 1.00e+00f  1
   5 -1.2976847e+01 0.00e+00 5.30e-02  -1.0 6.34e+01    -  9.07e-01 1.00e+00f  1
   6 -2.0179102e+01 0.00e+00 4.14e-01  -1.0 2.96e+02    -  8.27e-01 6.44e-01f  1
   7 -1.9973853e+01 0.00e+00 4.83e-01  -1.0 7.20e+01  -2.0 3.20e-02 1.71e-02h  6
   8 -2.0243533e+01 0.00e+00 4.70e-01  -1.0 1.39e+03    -  7.99e-01 7.84e-03h  1
   9 -2.1391567e+01 0.00e+00 3.49e+00  -1.0 2.94e+02    -  1.00e+00 1.00e+00f  1
iter    objective    inf_pr   inf_du lg(mu)  ||d||  lg(rg) alpha_du alpha_pr  ls
  10 -2.5988292e+01 0.00e+00 1.14e+00  -1.0 1.35e+01  -2.5 8.26e-01 1.00e+00h  1
  11 -2.6585875e+01 0.00e+00 4.72e-01  -1.0 1.26e+01  -3.0 1.00e+00 1.00e+00h  1
  12 -2.9644578e+01 0.00e+00 5.98e-01  -1.0 1.11e+03    -  1.00e+00 1.39e-01f  1
  13 -3.0703122e+01 0.00e+00 1.00e-01  -1.0 4.85e+01  -3.4 9.97e-01 1.00e+00h  1
  14 -4.6897091e+01 0.00e+00 4.66e+00  -1.0 1.86e+03    -  1.00e+00 6.36e-01f  1
  15 -5.8932795e+01 0.00e+00 2.82e+00  -1.0 2.53e+03    -  8.81e-01 2.91e-01f  1
  16 -5.8992151e+01 0.00e+00 1.95e+00  -1.0 1.13e+02    -  2.31e-02 1.43e-01h  1
  17 -5.7756865e+01 0.00e+00 9.74e-03  -1.0 1.10e+02    -  1.00e+00 1.00e+00h  1
  18 -5.8687972e+01 0.00e+00 4.97e-03  -1.0 7.74e+01    -  1.00e+00 1.00e+00f  1
  19 -5.8959722e+01 0.00e+00 4.32e-04  -1.7 3.27e+01    -  1.00e+00 1.00e+00h  1
iter    objective    inf_pr   inf_du lg(mu)  ||d||  lg(rg) alpha_du alpha_pr  ls
  20 -5.9006655e+01 0.00e+00 1.73e-05  -2.5 7.38e+00    -  1.00e+00 1.00e+00h  1
  21 -5.9012856e+01 0.00e+00 4.45e-07  -3.8 1.04e+00    -  1.00e+00 1.00e+00h  1
Reallocating memory for MA57: lfact (169)
  22 -5.9013175e+01 0.00e+00 1.24e-09  -5.7 5.22e-02    -  1.00e+00 1.00e+00h  1
Reallocating memory for MA57: lfact (269)
  23 -5.9013178e+01 0.00e+00 1.84e-13  -8.6 5.98e-04    -  1.00e+00 1.00e+00h  1

Number of Iterations....: 23

                                   (scaled)                 (unscaled)
Objective...............:  -5.9013178482371131e+01   -5.9013178482371131e+01
Dual infeasibility......:   1.8407497748285095e-13    1.8407497748285095e-13
Constraint violation....:   0.0000000000000000e+00    0.0000000000000000e+00
Complementarity.........:   2.5132069749926692e-09    2.5132069749926692e-09
Overall NLP error.......:   2.5132069749926692e-09    2.5132069749926692e-09


Number of objective function evaluations             = 31
Number of objective gradient evaluations             = 24
Number of equality constraint evaluations            = 0
Number of inequality constraint evaluations          = 31
Number of equality constraint Jacobian evaluations   = 0
Number of inequality constraint Jacobian evaluations = 24
Number of Lagrangian Hessian evaluations             = 23
Total CPU secs in IPOPT (w/o function evaluations)   =      0.010
Total CPU secs in NLP function evaluations           =      0.000

EXIT: Optimal Solution Found.

************************ CUTEst statistics ************************


 Package used            :  IPOPT
 Problem                 :  HIMMELP6  
 # variables             =               2
 # constraints           =               5
 # objective functions   =        0.5600000E+02
 # objective gradients   =        0.2500000E+02
 # objective Hessians    =        0.2400000E+02
 # Hessian-vector prdct  =        0.0000000E+00
 # constraints functions =        0.5700000E+02
 # constraints gradients =        0.2600000E+02
 # constraints Hessians  =        0.2400000E+02
 Exit code               =               0
 Final f                 =  -0.5901318E+02
 Set up time             =            0.00 seconds
 Solve time              =            0.03 seconds


******************************************************************

System Time =       0.0080000004 s.
